108 300 32 22 14 11 15 23 42 45 49 16 38 13 32 17 14 41 28 45 26 47 38 10 25 20 39 37 14 21 10 43 38 32 14 45 35 22 19 29 16 17 35 46 22 19 12 27 50 32 23 27 30 11 30 46 23 18 34 29 31 34 22 19 17 28 15 42 40 24 22 48 33 48 43 46 18 48 22 19 29 37 39 50 40 20 47 14 30 30 34 11 13 46 22 20 23 27 13 15 41 26 14 23 25 50 18 35 49 32 